data/solutions/recovery/degenerate/intermediate/binding/degenerate_intermediate_instance37/27.sol
Elapsed time: 0.03
Upper bound: 193359.0
Planning weighted value: 8559071645.0
C[0]=193359.0
C[1]=191674.0
C[2]=191267.0
C[3]=188429.0
C[4]=188023.0
C[5]=173943.0
C[6]=172771.0
C[7]=165611.0
C[8]=165470.0
C[9]=164104.0
C[10]=128304.0
C[11]=125112.0
C[12]=121994.0
C[13]=119947.0
C[14]=0.0
C[15]=0.0
y[0]=1
y[1]=7
y[2]=11
y[3]=3
y[4]=1
y[5]=12
y[6]=4
y[7]=5
y[8]=6
y[9]=7
y[10]=1
y[11]=10
y[12]=1
y[13]=0
y[14]=12
y[15]=4
y[16]=5
y[17]=1
y[18]=2
y[19]=13
y[20]=6
y[21]=8
y[22]=5
y[23]=9
y[24]=9
y[25]=8
y[26]=2
y[27]=1
y[28]=4
y[29]=7
y[30]=10
y[31]=3
y[32]=1
y[33]=4
y[34]=9
y[35]=11
y[36]=2
y[37]=2
y[38]=13
y[39]=9
y[40]=8
y[41]=1
y[42]=13
y[43]=4
y[44]=6
y[45]=5
y[46]=13
y[47]=0
y[48]=6
y[49]=12
y[50]=7
y[51]=3
y[52]=13
y[53]=10
y[54]=9
y[55]=11
y[56]=5
y[57]=0
y[58]=3
y[59]=2
y[60]=2
y[61]=6
y[62]=3
y[63]=8
y[64]=7
