data/solutions/recovery/degenerate/intermediate/binding/degenerate_intermediate_instance37/27.log

Log started (V12.6.3.0) Sun Apr 22 12:33:23 2018

New value for default parallel thread count: 1

Problem '/tmp/tmpNf_lh4.pyomo.lp' read.
Read time = 0.01 sec. (0.74 ticks)

Problem name         : /tmp/tmpNf_lh4.pyomo.lp
Objective sense      : Minimize
Variables            :    1058  [Nneg: 1,  Binary: 1040,  General Integer: 17]
Objective nonzeros   :       1
Linear constraints   :     165  [Less: 81,  Equal: 84]
  Nonzeros           :   52927
  RHS nonzeros       :      66

Variables            : Min LB: 0.000000         Max UB: 1.000000       
Objective nonzeros   : Min   : 1.000000         Max   : 1.000000       
Linear constraints   :
  Nonzeros           : Min   : 1.000000         Max   : 128311.0       
  RHS nonzeros       : Min   : 1.000000         Max   : 1.000000       
Tried aggregator 2 times.
MIP Presolve eliminated 124 rows and 861 columns.
Aggregator did 14 substitutions.
Reduced MIP has 27 rows, 183 columns, and 378 nonzeros.
Reduced MIP has 182 binaries, 1 generals, 0 SOSs, and 0 indicators.
Presolve time = 0.00 sec. (3.83 ticks)
Found incumbent of value 822795.000000 after 0.01 sec. (5.16 ticks)
Probing time = 0.00 sec. (0.22 ticks)
Tried aggregator 1 time.
Reduced MIP has 27 rows, 183 columns, and 378 nonzeros.
Reduced MIP has 182 binaries, 1 generals, 0 SOSs, and 0 indicators.
Presolve time = 0.00 sec. (0.30 ticks)
Probing time = 0.00 sec. (0.22 ticks)
Clique table members: 13.
MIP emphasis: balance optimality and feasibility.
MIP search method: dynamic search.
Parallel mode: none, using 1 thread.
Root relaxation solution time = 0.00 sec. (0.24 ticks)

        Nodes                                         Cuts/
   Node  Left     Objective  IInf  Best Integer    Best Bound    ItCnt     Gap

*     0+    0                       822795.0000   193359.0000            76.50%
      0     0   193359.0000    15   822795.0000   193359.0000       43   76.50%
*     0+    0                       193359.0000   193359.0000             0.00%
      0     0        cutoff         193359.0000   193359.0000       43    0.00%
Elapsed time = 0.01 sec. (6.48 ticks, tree = 0.01 MB, solutions = 2)

Root node processing (before b&c):
  Real time             =    0.01 sec. (6.51 ticks)
Sequential b&c:
  Real time             =    0.00 sec. (0.00 ticks)
                          ------------
Total (root+branch&cut) =    0.01 sec. (6.51 ticks)

Solution pool: 2 solutions saved.

MIP - Integer optimal solution:  Objective =  1.9335900000e+05
Solution time =    0.01 sec.  Iterations = 43  Nodes = 0
Deterministic time = 6.52 ticks  (770.60 ticks/sec)


Incumbent solution written to file '/tmp/tmpoqxDdk.cplex.sol'.
